c turning on binary mode checking
c parsing input formula with 259840 variables and 1039929 clauses
c finished parsing, read 23690409 bytes from proof file
c detected empty clause; start verification via backward checking
c 18007 of 1039929 clauses in core                            
c 23908 of 615076 lemmas in core using 200171 resolution steps
c 0 RAT lemmas in core; 1506 redundant literals in core lemmas
s VERIFIED
c verification time: 3.243 seconds
